computational_data/solutions/ER_n30_p035_s0.sol
Optimal - objective value 7.00000000
      6 r_6                         1                       1
      9 r_9                         1                       1
     16 r_16                        1                       1
     24 r_24                        1                       1
     35 b_5                         1                       1
     38 b_8                         1                       1
     51 b_21                        1                       1
