computational_data/logs/ER_n30_p035_s0.log
Welcome to the CBC MILP Solver 
Version: 2.10.12 
Build Date: Aug 20 2024 

command line - /opt/homebrew/bin/cbc computational_data/lp/ER_n30_p035_s0.lp seconds 10.0 solve solu computational_data/solutions/ER_n30_p035_s0.sol (default strategy 1)
seconds was changed from 1e+100 to 10
Continuous objective value is 5.3559 - 0.00 seconds
Cgl0003I 0 fixed, 0 tightened bounds, 155 strengthened rows, 0 substitutions
Cgl0003I 0 fixed, 0 tightened bounds, 125 strengthened rows, 0 substitutions
Cgl0003I 0 fixed, 0 tightened bounds, 57 strengthened rows, 0 substitutions
Cgl0003I 0 fixed, 0 tightened bounds, 24 strengthened rows, 0 substitutions
Cgl0003I 0 fixed, 0 tightened bounds, 4 strengthened rows, 0 substitutions
Cgl0004I processed model has 252 rows, 60 columns (60 integer (60 of which binary)) and 1317 elements
Cutoff increment increased from 1e-05 to 0.9999
Cbc0038I Initial state - 38 integers unsatisfied sum - 5.3559
Cbc0038I Pass   1: suminf.    5.35897 (37) obj. 5.35897 iterations 2
Cbc0038I Pass   2: suminf.    5.50000 (15) obj. 10 iterations 55
Cbc0038I Pass   3: suminf.    3.28571 (15) obj. 10.8571 iterations 38
Cbc0038I Pass   4: suminf.    0.00000 (0) obj. 12 iterations 62
Cbc0038I Solution found of 12
Cbc0038I Before mini branch and bound, 19 integers at bound fixed and 0 continuous
Cbc0038I Full problem 252 rows 60 columns, reduced to 196 rows 41 columns - 4 fixed gives 55, 18 - ok now
Cbc0038I Full problem 252 rows 60 columns, reduced to 47 rows 16 columns
Cbc0038I Mini branch and bound improved solution from 12 to 11 (0.02 seconds)
Cbc0038I Round again with cutoff of 9.53568
Cbc0038I Pass   5: suminf.    5.35897 (37) obj. 5.35897 iterations 0
Cbc0038I Pass   6: suminf.    6.96432 (22) obj. 9.53568 iterations 84
Cbc0038I Pass   7: suminf.    3.98573 (18) obj. 9.53568 iterations 45
Cbc0038I Pass   8: suminf.    3.61090 (14) obj. 9.53568 iterations 12
Cbc0038I Pass   9: suminf.    3.09762 (14) obj. 9.53568 iterations 4
Cbc0038I Pass  10: suminf.    3.69648 (16) obj. 9.53568 iterations 72
Cbc0038I Pass  11: suminf.    0.94531 (21) obj. 9.53568 iterations 20
Cbc0038I Pass  12: suminf.    0.90653 (17) obj. 9.53568 iterations 5
Cbc0038I Pass  13: suminf.    5.66667 (17) obj. 7.33333 iterations 50
Cbc0038I Pass  14: suminf.    4.35192 (24) obj. 7.85017 iterations 37
Cbc0038I Pass  15: suminf.    4.14679 (29) obj. 7.79817 iterations 25
Cbc0038I Pass  16: suminf.    3.66560 (15) obj. 9.53568 iterations 85
Cbc0038I Pass  17: suminf.    2.63757 (14) obj. 9.53568 iterations 30
Cbc0038I Pass  18: suminf.    3.00000 (10) obj. 9.53568 iterations 40
Cbc0038I Pass  19: suminf.    1.84824 (10) obj. 9.53568 iterations 30
Cbc0038I Pass  20: suminf.    3.95243 (10) obj. 9.53568 iterations 72
Cbc0038I Pass  21: suminf.    3.13099 (9) obj. 9.53568 iterations 28
Cbc0038I Pass  22: suminf.    4.00000 (8) obj. 9 iterations 43
Cbc0038I Pass  23: suminf.    2.75000 (13) obj. 8.41667 iterations 23
Cbc0038I Pass  24: suminf.    2.36364 (11) obj. 8.45455 iterations 20
Cbc0038I Pass  25: suminf.    0.00000 (0) obj. 9 iterations 27
Cbc0038I Solution found of 9
Cbc0038I Before mini branch and bound, 9 integers at bound fixed and 0 continuous
Cbc0038I Full problem 252 rows 60 columns, reduced to 235 rows 51 columns - 1 fixed gives 203, 44 - still too large
Cbc0038I Mini branch and bound did not improve solution (0.05 seconds)
Cbc0038I Round again with cutoff of 7.47126
Cbc0038I Pass  26: suminf.    5.35897 (37) obj. 5.35897 iterations 0
Cbc0038I Pass  27: suminf.    6.09196 (20) obj. 7.47126 iterations 70
Cbc0038I Pass  28: suminf.    4.75000 (16) obj. 7.25 iterations 46
Cbc0038I Pass  29: suminf.    4.97373 (17) obj. 7.47126 iterations 40
Cbc0038I Pass  30: suminf.    3.52874 (17) obj. 7.47126 iterations 39
Cbc0038I Pass  31: suminf.    6.29290 (25) obj. 7.47126 iterations 40
Cbc0038I Pass  32: suminf.    4.32567 (27) obj. 7.47126 iterations 43
Cbc0038I Pass  33: suminf.    3.97615 (19) obj. 7.47126 iterations 36
Cbc0038I Pass  34: suminf.    3.30575 (17) obj. 7.47126 iterations 42
Cbc0038I Pass  35: suminf.    3.99139 (16) obj. 7.47126 iterations 52
Cbc0038I Pass  36: suminf.    3.48007 (18) obj. 7.47126 iterations 15
Cbc0038I Pass  37: suminf.    3.16343 (26) obj. 7.47126 iterations 23
Cbc0038I Pass  38: suminf.    2.99926 (26) obj. 7.47126 iterations 12
Cbc0038I Pass  39: suminf.    6.14943 (20) obj. 7.47126 iterations 51
Cbc0038I Pass  40: suminf.    4.05662 (24) obj. 7.47126 iterations 44
Cbc0038I Pass  41: suminf.    6.41013 (24) obj. 7.47126 iterations 39
Cbc0038I Pass  42: suminf.    4.78544 (27) obj. 7.47126 iterations 39
Cbc0038I Pass  43: suminf.    5.16667 (16) obj. 7.16667 iterations 61
Cbc0038I Pass  44: suminf.    4.55556 (19) obj. 6.88889 iterations 20
Cbc0038I Pass  45: suminf.    4.31356 (26) obj. 7.15254 iterations 21
Cbc0038I Pass  46: suminf.    5.22625 (22) obj. 7.47126 iterations 41
Cbc0038I Pass  47: suminf.    4.10575 (20) obj. 7.47126 iterations 35
Cbc0038I Pass  48: suminf.    5.21872 (21) obj. 7.47126 iterations 46
Cbc0038I Pass  49: suminf.    2.73775 (19) obj. 7.47126 iterations 35
Cbc0038I Pass  50: suminf.    2.52874 (17) obj. 7.47126 iterations 18
Cbc0038I Pass  51: suminf.    6.06444 (22) obj. 7.47126 iterations 54
Cbc0038I Pass  52: suminf.    2.46745 (24) obj. 7.47126 iterations 33
Cbc0038I Pass  53: suminf.    1.80938 (26) obj. 7.47126 iterations 34
Cbc0038I Pass  54: suminf.    5.27357 (23) obj. 7.47126 iterations 77
Cbc0038I Pass  55: suminf.    4.29099 (21) obj. 7.47126 iterations 34
Cbc0038I No solution found this major pass
Cbc0038I Before mini branch and bound, 0 integers at bound fixed and 0 continuous
Cbc0038I Full problem 252 rows 60 columns, reduced to 252 rows 60 columns - 1 fixed gives 222, 52 - still too large
Cbc0038I Mini branch and bound did not improve solution (0.07 seconds)
Cbc0038I After 0.07 seconds - Feasibility pump exiting with objective of 9 - took 0.06 seconds
Cbc0012I Integer solution of 9 found by feasibility pump after 0 iterations and 0 nodes (0.07 seconds)
Cbc0038I Full problem 252 rows 60 columns, reduced to 194 rows 41 columns - 1 fixed gives 157, 35 - still too large
Cbc0038I Full problem 252 rows 60 columns, reduced to 157 rows 35 columns - too large
Cbc0031I 7 added rows had average density of 60
Cbc0013I At root node, 7 cuts changed objective from 5.3559048 to 5.6149094 in 100 passes
Cbc0014I Cut generator 0 (Probing) - 0 row cuts average 0.0 elements, 0 column cuts (0 active)  in 0.033 seconds - new frequency is -100
Cbc0014I Cut generator 1 (Gomory) - 979 row cuts average 60.0 elements, 0 column cuts (0 active)  in 0.025 seconds - new frequency is -100
Cbc0014I Cut generator 2 (Knapsack) - 0 row cuts average 0.0 elements, 0 column cuts (0 active)  in 0.004 seconds - new frequency is -100
Cbc0014I Cut generator 3 (Clique) - 0 row cuts average 0.0 elements, 0 column cuts (0 active)  in 0.006 seconds - new frequency is -100
Cbc0014I Cut generator 4 (MixedIntegerRounding2) - 0 row cuts average 0.0 elements, 0 column cuts (0 active)  in 0.018 seconds - new frequency is -100
Cbc0014I Cut generator 5 (FlowCover) - 0 row cuts average 0.0 elements, 0 column cuts (0 active)  in 0.001 seconds - new frequency is -100
Cbc0010I After 0 nodes, 1 on tree, 9 best solution, best possible 5.6149094 (0.26 seconds)
Cbc0012I Integer solution of 7 found by DiveCoefficient after 3808 iterations and 3 nodes (0.27 seconds)
Cbc0001I Search completed - best objective 7, took 4107 iterations and 9 nodes (0.32 seconds)
Cbc0032I Strong branching done 228 times (5283 iterations), fathomed 1 nodes and fixed 0 variables
Cbc0035I Maximum depth 2, 30 variables fixed on reduced cost
Cuts at root node changed objective from 5.3559 to 5.61491
Probing was tried 100 times and created 0 cuts of which 0 were active after adding rounds of cuts (0.033 seconds)
Gomory was tried 100 times and created 979 cuts of which 0 were active after adding rounds of cuts (0.025 seconds)
Knapsack was tried 100 times and created 0 cuts of which 0 were active after adding rounds of cuts (0.004 seconds)
Clique was tried 100 times and created 0 cuts of which 0 were active after adding rounds of cuts (0.006 seconds)
MixedIntegerRounding2 was tried 100 times and created 0 cuts of which 0 were active after adding rounds of cuts (0.018 seconds)
FlowCover was tried 100 times and created 0 cuts of which 0 were active after adding rounds of cuts (0.001 seconds)
TwoMirCuts was tried 1 times and created 0 cuts of which 0 were active after adding rounds of cuts (0.001 seconds)
ZeroHalf was tried 1 times and created 0 cuts of which 0 were active after adding rounds of cuts (0.001 seconds)

Result - Optimal solution found

Objective value:                7.00000000
Enumerated nodes:               9
Total iterations:               4107
Time (CPU seconds):             0.32
Time (Wallclock seconds):       0.33

Total time (CPU seconds):       0.32   (Wallclock seconds):       0.33

